NAME : att48.tsp
TYPE : TOUR
DIMENSION : 48
TOUR_LENGTH : 34748.96479398915
TOUR_SECTION
1
40
11
13
14
23
3
22
16
41
34
29
2
26
4
35
45
10
24
42
5
48
32
39
25
21
47
20
12
15
33
46
36
30
43
17
27
19
37
6
28
7
18
44
31
38
9
8
-1
